% demand
num_movements = 20;
loading_factor = [950, 1950, 1700, 1800, 1200, 1900, 1450, 1600, 1450, 1300, 1700, 950, 1950, 1750, 1600, 1450, 900, 1200, 900, 950];
pickup_time = [0, 0, 0, 0, 1, 1, 2, 2, 2, 2, 4, 5, 6, 6, 6, 7, 7, 8, 9, 10];
delivery_time = [1, 2, 1, 2, 3, 2, 6, 6, 3, 8, 6, 6, 7, 8, 12, 12, 13, 11, 12, 12];

% transporter definition
total_capacity = 7000;
num_decks = 3;
capacity = [3000, 1000, 3000];

% ways out of decks
num_ways_out = 1;
paths_out = array3d(decks, ways_out, decks, [
% ways out of deck d1
2, 3, 0, 

% ways out of deck d2
3, 0, 0, 

% ways out of deck d3
0, 0, 0,	

]);

